c FILE: I16.clq
c
c SOURCE: Manually created by Breno Viana
c
c Graph Stats
c number of vertices  : 35
c number of edges     : 37
p col 35 37
e 1 2
e 1 9
e 1 10
e 1 11
e 1 12
e 1 13
e 2 3
e 2 14
e 2 15
e 2 16
e 2 17
e 2 18
e 3 4
e 3 19
e 3 20
e 3 21
e 3 22
e 3 23
e 4 5
e 4 24
e 4 25
e 5 6
e 5 24
e 5 25
e 6 7
e 6 26
e 6 27
e 6 28
e 6 29
e 6 30
e 7 8
e 7 31
e 7 32
e 7 33
e 7 34
e 7 35
e 24 25
